
Gurobi 12.0.2 (win64) logging started Fri Jun  6 10:10:07 2025

Set parameter LogFile to value "C:\Ioana\_uni\honours\slp\algorithm\Main_files\results\others\prox_tubules_new\Task_010_Sample002_irr_gurobi.log"
Gurobi Optimizer version 12.0.2 build v12.0.2rc0 (win64 - Windows 11.0 (26100.2))

CPU model: Intel(R) Core(TM) Ultra 5 125H, instruction set [SSE2|AVX|AVX2]
Thread count: 14 physical cores, 18 logical processors, using up to 18 threads

Non-default parameters:
TimeLimit  2200

Optimize a model with 47658 rows, 34794 columns and 147841 nonzeros
Model fingerprint: 0x5bc03b01
Variable types: 17400 continuous, 17394 integer (17394 binary)
Coefficient statistics:
  Matrix range     [1e-04, 8e+04]
  Objective range  [1e-04, 9e-01]
  Bounds range     [1e+00, 1e+03]
  RHS range        [1e+00, 1e+00]
Presolve removed 31250 rows and 21835 columns
Presolve time: 0.31s
Presolved: 16408 rows, 12959 columns, 54592 nonzeros
Variable types: 6413 continuous, 6546 integer (6546 binary)

Root relaxation: objective 1.794341e-03, 2142 iterations, 0.14 seconds (0.23 work units)

    Nodes    |    Current Node    |     Objective Bounds      |     Work
 Expl Unexpl |  Obj  Depth IntInf | Incumbent    BestBd   Gap | It/Node Time

     0     0    0.00179    0    4          -    0.00179      -     -    0s
H    0     0                       1.7943410    0.00179   100%     -    0s
     0     0    0.91279    0    4    1.79434    0.91279  49.1%     -    0s
     0     0    0.91803    0    1    1.79434    0.91803  48.8%     -    0s
     0     0    0.91997    0    5    1.79434    0.91997  48.7%     -    0s

Explored 1 nodes (3159 simplex iterations) in 1.02 seconds (1.21 work units)
Thread count was 18 (of 18 available processors)

Solution count 1: 1.79434 

Optimal solution found (tolerance 1.00e-04)
Best objective 1.794341011503e+00, best bound 1.794341011503e+00, gap 0.0000%
